15
1 0 1
2 1 1
3 1 3
4 0 2
4 1 3
4 2 1
5 1 2
6 3 2
6 4 3
7 0 2
7 1 1
7 3 3
7 4 2
7 6 3
8 0 2
8 1 3
8 2 1
8 4 3
8 7 1
9 1 2
9 2 3
9 4 3
9 6 3
9 7 2
10 2 1
10 3 2
10 5 1
10 6 3
10 9 2
11 2 2
11 3 2
11 5 3
11 6 2
11 8 2
11 10 2
12 0 2
12 3 3
12 5 3
12 7 2
12 8 1
13 0 2
13 1 2
13 2 2
13 3 3
13 7 2
13 8 2
13 10 2
13 12 2
14 1 3
14 2 2
14 4 2
14 9 1
14 11 2
14 12 1
